letting n =  10
letting blocks =  [[1, 5], [1, 7], [1, 10], [2, 4], [2, 10], [3, 1], [3, 3], [3, 7], [3, 9], [4, 3], [4, 6], [5, 2], [5, 3], [5, 4], [5, 5], [5, 7], [5, 9], [6, 2], [6, 5], [6, 7], [6, 9], [6, 10], [7, 1], [7, 3], [7, 4], [7, 5], [7, 8], [7, 10], [8, 1], [8, 7], [8, 10], [9, 3], [9, 6], [9, 7]]
